5 20
1 0 0
2 0 3
3 4 6
4 4 0
5 9 3
1 2 3.0
1 3 7.21
1 4 4.0
1 5 9.49
2 3 5.0
2 4 5.0
2 5 9.0
3 4 6.0
3 5 6.0
4 5 6.0
2 1 3.0
3 1 7.21
4 1 4.0
5 1 9.49
3 2 5.0
4 2 5.0
5 2 9.0
4 3 6.0
5 3 6.0
5 4 6.0
1
4.5
2
2 5 1.0
3 4 3.0
